# Solution for model GasLib-40
# Objective value = 8.6998662701192046e+01
loadshed[innode_1] 0
loadshed[innode_2] 0
loadshed[innode_3] 0
loadshed[innode_4] 0
loadshed[innode_5] 0
loadshed[innode_6] 0
loadshed[innode_7] 0
loadshed[innode_8] 0
loadshed[source_1] 0.0470830281265765
loadshed[source_2] 1.9381450348552087e-01
loadshed[source_3] 3.0941248064225957e-01
loadshed[sink_1] 1
loadshed[sink_2] 0
loadshed[sink_3] 0
loadshed[sink_4] 0
loadshed[sink_5] 0
loadshed[sink_6] 0
loadshed[sink_7] 0
loadshed[sink_8] 0
loadshed[sink_9] 0
loadshed[sink_10] 0
loadshed[sink_11] 0
loadshed[sink_12] 1
loadshed[sink_13] 0
loadshed[sink_14] 0
loadshed[sink_15] 0
loadshed[sink_16] 0
loadshed[sink_17] 0
loadshed[sink_18] 6.4589120840418857e-01
loadshed[sink_19] 0
loadshed[sink_20] 0
loadshed[sink_21] 1
loadshed[sink_22] 7.0184170990989569e-01
loadshed[sink_23] 0
loadshed[sink_24] 9.7193053347854952e-01
loadshed[sink_25] 0
loadshed[sink_26] 0
loadshed[sink_27] 0
loadshed[sink_28] 0
loadshed[sink_29] 0
flow[source_1,sink_3] 1.5064690878262837e+02
flow[innode_1,sink_16] 1.6354166666666970e+01
flow[innode_6,sink_13] 5.3039939015348843e+00
flow[sink_13,sink_14] -1.1050172765131784e+01
flow[sink_14,sink_10] -2.7404339431798451e+01
flow[sink_25,sink_26] 0
flow[sink_26,sink_9] 1.6354166666669244e+01
flow[sink_9,sink_18] 0
flow[sink_26,sink_4] -3.2708333333335915e+01
flow[sink_4,sink_20] -1.4195967063214556e+02
flow[sink_18,sink_6] -5.7911541958898347e+00
flow[sink_25,innode_8] -1.1793857544929199e+02
flow[sink_6,sink_7] -2.7021451231738425e+01
flow[sink_6,sink_22] 4.8761303691819151e+00
flow[sink_7,sink_24] 4.5905273373622313e-01
flow[sink_22,sink_1] 0
flow[sink_24,sink_21] 0
flow[sink_21,sink_12] 0
flow[sink_7,sink_5] -4.3834670632141318e+01
flow[sink_5,sink_17] -6.0188837298807982e+01
flow[sink_17,sink_4] -9.2897170632142988e+01
flow[sink_17,sink_8] 1.6354166666668334e+01
flow[sink_3,sink_23] 16.3541666666697
flow[sink_8,sink_20] 0
flow[sink_25,sink_20] 1.5831383729881222e+02
flow[sink_25,sink_15] -6.2033422417721816e+01
flow[sink_15,sink_29] -4.5875023803398030e+01
flow[sink_29,sink_28] 1.6354166666667879e+01
flow[sink_29,sink_2] 4.8866731947657115e+01
flow[sink_2,sink_15] 3.2512565280990444e+01
flow[sink_29,innode_7] -1.2745008908438970e+02
flow[innode_4,sink_19] 4.1904960986556091e+01
flow[sink_19,innode_3] 3.7315494876362251e+01
flow[innode_4,innode_5] 6.7270211778575586e+01
flow[sink_27,innode_5] -6.7270211778575586e+01
flow[sink_27,sink_19] 5.0916045111908922e+01
flow[sink_10,sink_11] 3.2708333333333641e+01
flow[sink_10,innode_2] -3.9151344555436438e+01
flow[sink_10,innode_3] -3.7315494876362251e+01
flow[innode_6,sink_25] -5.3039939015348843e+00
flow[sink_11,innode_1] 1.6354166666666970e+01
flow[sink_19,innode_2] 3.9151344555436438e+01
flow[source_3,innode_4] 1.0917517276513168e+02
flow[source_2,innode_7] 1.2745008908438970e+02
flow[sink_3,innode_8] 1.1793857544929199e+02
pressure[innode_1] 7.7094561688278418e+01
pressure[innode_2] 7.9315573255985456e+01
pressure[innode_3] 7.9232942318103184e+01
pressure[innode_4] 81.01325
pressure[innode_5] 8.0966978001169437e+01
pressure[innode_6] 7.5959541027021118e+01
pressure[innode_7] 81.01325
pressure[innode_8] 8.0509694933144758e+01
pressure[source_1] 81.01325
pressure[source_2] 81.01325
pressure[source_3] 81.01325
pressure[sink_1] 1.0132500000000002e+00
pressure[sink_2] 76.3666099324568
pressure[sink_3] 8.0509694933144758e+01
pressure[sink_4] 2.7803184767818102e+01
pressure[sink_5] 1.9769327903859633e+01
pressure[sink_6] 1.1678910595622563e+00
pressure[sink_7] 1.5388311755827342e+00
pressure[sink_8] 2.3635876029795394e+01
pressure[sink_9] 2.2665723530929633e+01
pressure[sink_10] 7.7246262995881963e+01
pressure[sink_11] 7.7094561688278418e+01
pressure[sink_12] 1.01325
pressure[sink_13] 7.5930300995021682e+01
pressure[sink_14] 7.5950076220451479e+01
pressure[sink_15] 7.6260463572468339e+01
pressure[sink_16] 7.6072911853460738e+01
pressure[sink_17] 2.4252961225209020e+01
pressure[sink_18] 1.01325
pressure[sink_19] 7.9315573255985456e+01
pressure[sink_20] 3.8218006281835528e+01
pressure[sink_21] 1.01325
pressure[sink_22] 1.0132500000000002e+00
pressure[sink_23] 8.0344976921484971e+01
pressure[sink_24] 1.01325
pressure[sink_25] 7.5959541027021118e+01
pressure[sink_26] 2.3644562614872054e+01
pressure[sink_27] 8.0408759545393181e+01
pressure[sink_28] 7.7309177128525761e+01
pressure[sink_29] 7.7604459402142936e+01
interdiction[source_1,sink_3] 0
interdiction[innode_1,sink_16] 0
interdiction[innode_6,sink_13] 0
interdiction[sink_13,sink_14] 0
interdiction[sink_14,sink_10] 0
interdiction[sink_25,sink_26] 1
interdiction[sink_26,sink_9] 0
interdiction[sink_9,sink_18] 1
interdiction[sink_26,sink_4] 0
interdiction[sink_4,sink_20] 0
interdiction[sink_18,sink_6] 0
interdiction[sink_25,innode_8] 0
interdiction[sink_6,sink_7] 0
interdiction[sink_6,sink_22] 0
interdiction[sink_7,sink_24] 0
interdiction[sink_22,sink_1] 0
interdiction[sink_24,sink_21] 0
interdiction[sink_21,sink_12] 0
interdiction[sink_7,sink_5] 0
interdiction[sink_5,sink_17] 0
interdiction[sink_17,sink_4] 0
interdiction[sink_17,sink_8] 0
interdiction[sink_3,sink_23] 0
interdiction[sink_8,sink_20] 1
interdiction[sink_25,sink_20] 0
interdiction[sink_25,sink_15] 0
interdiction[sink_15,sink_29] 0
interdiction[sink_29,sink_28] 0
interdiction[sink_29,sink_2] 0
interdiction[sink_2,sink_15] 0
interdiction[sink_29,innode_7] 0
interdiction[innode_4,sink_19] 0
interdiction[sink_19,innode_3] 0
interdiction[innode_4,innode_5] 0
interdiction[sink_27,innode_5] 0
interdiction[sink_27,sink_19] 0
interdiction[sink_10,sink_11] 0
interdiction[sink_10,innode_2] 0
interdiction[sink_10,innode_3] 0
interdiction[innode_6,sink_25] 0
interdiction[sink_11,innode_1] 0
interdiction[sink_19,innode_2] 0
interdiction[source_3,innode_4] 0
interdiction[source_2,innode_7] 0
interdiction[sink_3,innode_8] 0
WCcheckFlow[source_1,sink_3] 39
WCcheckFlow[innode_1,sink_16] 1
WCcheckFlow[innode_6,sink_13] 13
WCcheckFlow[sink_13,sink_14] 12
WCcheckFlow[sink_14,sink_10] 11
WCcheckFlow[sink_25,sink_26] 0
WCcheckFlow[sink_26,sink_9] 1
WCcheckFlow[sink_9,sink_18] 0
WCcheckFlow[sink_26,sink_4] -2
WCcheckFlow[sink_4,sink_20] -14
WCcheckFlow[sink_18,sink_6] -1
WCcheckFlow[sink_25,innode_8] -36
WCcheckFlow[sink_6,sink_7] -4
WCcheckFlow[sink_6,sink_22] 2
WCcheckFlow[sink_7,sink_24] 3
WCcheckFlow[sink_22,sink_1] 1
WCcheckFlow[sink_24,sink_21] 2
WCcheckFlow[sink_21,sink_12] 1
WCcheckFlow[sink_7,sink_5] -8
WCcheckFlow[sink_5,sink_17] -9
WCcheckFlow[sink_17,sink_4] -11
WCcheckFlow[sink_17,sink_8] 1
WCcheckFlow[sink_3,sink_23] 1
WCcheckFlow[sink_8,sink_20] 0
WCcheckFlow[sink_25,sink_20] 15
WCcheckFlow[sink_25,sink_15] 6
WCcheckFlow[sink_15,sink_29] 5
WCcheckFlow[sink_29,sink_28] 1
WCcheckFlow[sink_29,sink_2] 1
WCcheckFlow[sink_2,sink_15] 0
WCcheckFlow[sink_29,innode_7] 2
WCcheckFlow[innode_4,sink_19] -4
WCcheckFlow[sink_19,innode_3] -5
WCcheckFlow[innode_4,innode_5] 2
WCcheckFlow[sink_27,innode_5] -1
WCcheckFlow[sink_27,sink_19] 0
WCcheckFlow[sink_10,sink_11] 3
WCcheckFlow[sink_10,innode_2] 1
WCcheckFlow[sink_10,innode_3] 6
WCcheckFlow[innode_6,sink_25] -14
WCcheckFlow[sink_11,innode_1] 2
WCcheckFlow[sink_19,innode_2] 0
WCcheckFlow[source_3,innode_4] -1
WCcheckFlow[source_2,innode_7] -1
WCcheckFlow[sink_3,innode_8] 37
